data/lp_files/pEFS/87_6.lp
\ Model foo
\ LP format - for model browsing. Use MPS format to capture full model detail.
Minimize
  z
Subject To
 allocateEach[1]: x[1,1] + x[2,1] + x[3,1] + x[4,1] + x[5,1] = 1
 allocateEach[2]: x[1,2] + x[2,2] + x[3,2] + x[4,2] + x[5,2] = 1
 allocateEach[3]: x[1,3] + x[2,3] + x[3,3] + x[4,3] + x[5,3] = 1
 allocateEach[4]: x[1,4] + x[2,4] + x[3,4] + x[4,4] + x[5,4] = 1
 allocateEach[5]: x[1,5] + x[2,5] + x[3,5] + x[4,5] + x[5,5] = 1
 allocateEach[6]: x[1,6] + x[2,6] + x[3,6] + x[4,6] + x[5,6] = 1
 allocateEach[7]: x[1,7] + x[2,7] + x[3,7] + x[4,7] + x[5,7] = 1
 allocateAllCash: cashProportion[1] + cashProportion[2] + cashProportion[3]
   + cashProportion[4] + cashProportion[5] = 1
 findWorstP[1,2]: z + 0.1146427445473045 cashProportion[1]
   - 0.1146427445473045 cashProportion[2] + 0.2022871227537187 x[1,1]
   + 0.2807314207102118 x[1,2] + 0.00756642114012209 x[1,3]
   + 0.061477171763492 x[1,4] + 0.0981055286463558 x[1,5]
   + 0.0623656530337336 x[1,6] + 0.1728239374050615 x[1,7]
   - 0.2022871227537187 x[2,1] - 0.2807314207102118 x[2,2]
   - 0.00756642114012209 x[2,3] - 0.061477171763492 x[2,4]
   - 0.0981055286463558 x[2,5] - 0.0623656530337336 x[2,6]
   - 0.1728239374050615 x[2,7] >= 0
 findWorstP[1,3]: z + 0.1146427445473045 cashProportion[1]
   - 0.1146427445473045 cashProportion[3] + 0.2022871227537187 x[1,1]
   + 0.2807314207102118 x[1,2] + 0.00756642114012209 x[1,3]
   + 0.061477171763492 x[1,4] + 0.0981055286463558 x[1,5]
   + 0.0623656530337336 x[1,6] + 0.1728239374050615 x[1,7]
   - 0.2022871227537187 x[3,1] - 0.2807314207102118 x[3,2]
   - 0.00756642114012209 x[3,3] - 0.061477171763492 x[3,4]
   - 0.0981055286463558 x[3,5] - 0.0623656530337336 x[3,6]
   - 0.1728239374050615 x[3,7] >= 0
 findWorstP[1,4]: z + 0.1146427445473045 cashProportion[1]
   - 0.1146427445473045 cashProportion[4] + 0.2022871227537187 x[1,1]
   + 0.2807314207102118 x[1,2] + 0.00756642114012209 x[1,3]
   + 0.061477171763492 x[1,4] + 0.0981055286463558 x[1,5]
   + 0.0623656530337336 x[1,6] + 0.1728239374050615 x[1,7]
   - 0.2022871227537187 x[4,1] - 0.2807314207102118 x[4,2]
   - 0.00756642114012209 x[4,3] - 0.061477171763492 x[4,4]
   - 0.0981055286463558 x[4,5] - 0.0623656530337336 x[4,6]
   - 0.1728239374050615 x[4,7] >= 0
 findWorstP[1,5]: z + 0.1146427445473045 cashProportion[1]
   - 0.1146427445473045 cashProportion[5] + 0.2022871227537187 x[1,1]
   + 0.2807314207102118 x[1,2] + 0.00756642114012209 x[1,3]
   + 0.061477171763492 x[1,4] + 0.0981055286463558 x[1,5]
   + 0.0623656530337336 x[1,6] + 0.1728239374050615 x[1,7]
   - 0.2022871227537187 x[5,1] - 0.2807314207102118 x[5,2]
   - 0.00756642114012209 x[5,3] - 0.061477171763492 x[5,4]
   - 0.0981055286463558 x[5,5] - 0.0623656530337336 x[5,6]
   - 0.1728239374050615 x[5,7] >= 0
 findWorstP[2,1]: z - 0.0907894139543329 cashProportion[1]
   + 0.0907894139543329 cashProportion[2] - 0.1828271823505379 x[1,1]
   - 0.2047755231739979 x[1,2] - 0.0154342003722366 x[1,3]
   - 0.1912705978482908 x[1,4] - 0.1223387353034636 x[1,5]
   - 0.1655091016387489 x[1,6] - 0.0270552453583912 x[1,7]
   + 0.1828271823505379 x[2,1] + 0.2047755231739979 x[2,2]
   + 0.0154342003722366 x[2,3] + 0.1912705978482908 x[2,4]
   + 0.1223387353034636 x[2,5] + 0.1655091016387489 x[2,6]
   + 0.0270552453583912 x[2,7] >= 0
 findWorstP[2,3]: z + 0.0907894139543329 cashProportion[2]
   - 0.0907894139543329 cashProportion[3] + 0.1828271823505379 x[2,1]
   + 0.2047755231739979 x[2,2] + 0.0154342003722366 x[2,3]
   + 0.1912705978482908 x[2,4] + 0.1223387353034636 x[2,5]
   + 0.1655091016387489 x[2,6] + 0.0270552453583912 x[2,7]
   - 0.1828271823505379 x[3,1] - 0.2047755231739979 x[3,2]
   - 0.0154342003722366 x[3,3] - 0.1912705978482908 x[3,4]
   - 0.1223387353034636 x[3,5] - 0.1655091016387489 x[3,6]
   - 0.0270552453583912 x[3,7] >= 0
 findWorstP[2,4]: z + 0.0907894139543329 cashProportion[2]
   - 0.0907894139543329 cashProportion[4] + 0.1828271823505379 x[2,1]
   + 0.2047755231739979 x[2,2] + 0.0154342003722366 x[2,3]
   + 0.1912705978482908 x[2,4] + 0.1223387353034636 x[2,5]
   + 0.1655091016387489 x[2,6] + 0.0270552453583912 x[2,7]
   - 0.1828271823505379 x[4,1] - 0.2047755231739979 x[4,2]
   - 0.0154342003722366 x[4,3] - 0.1912705978482908 x[4,4]
   - 0.1223387353034636 x[4,5] - 0.1655091016387489 x[4,6]
   - 0.0270552453583912 x[4,7] >= 0
 findWorstP[2,5]: z + 0.0907894139543329 cashProportion[2]
   - 0.0907894139543329 cashProportion[5] + 0.1828271823505379 x[2,1]
   + 0.2047755231739979 x[2,2] + 0.0154342003722366 x[2,3]
   + 0.1912705978482908 x[2,4] + 0.1223387353034636 x[2,5]
   + 0.1655091016387489 x[2,6] + 0.0270552453583912 x[2,7]
   - 0.1828271823505379 x[5,1] - 0.2047755231739979 x[5,2]
   - 0.0154342003722366 x[5,3] - 0.1912705978482908 x[5,4]
   - 0.1223387353034636 x[5,5] - 0.1655091016387489 x[5,6]
   - 0.0270552453583912 x[5,7] >= 0
 findWorstP[3,1]: z - 0.103442033670382 cashProportion[1]
   + 0.103442033670382 cashProportion[3] - 0.0470402648116062 x[1,1]
   - 0.1501202513641418 x[1,2] - 0.2541053557112933 x[1,3]
   - 0.0344461972122372 x[1,4] - 0.1306214280172748 x[1,5]
   - 0.2573637797719103 x[1,6] - 0.0228606894411544 x[1,7]
   + 0.0470402648116062 x[3,1] + 0.1501202513641418 x[3,2]
   + 0.2541053557112933 x[3,3] + 0.0344461972122372 x[3,4]
   + 0.1306214280172748 x[3,5] + 0.2573637797719103 x[3,6]
   + 0.0228606894411544 x[3,7] >= 0
 findWorstP[3,2]: z - 0.103442033670382 cashProportion[2]
   + 0.103442033670382 cashProportion[3] - 0.0470402648116062 x[2,1]
   - 0.1501202513641418 x[2,2] - 0.2541053557112933 x[2,3]
   - 0.0344461972122372 x[2,4] - 0.1306214280172748 x[2,5]
   - 0.2573637797719103 x[2,6] - 0.0228606894411544 x[2,7]
   + 0.0470402648116062 x[3,1] + 0.1501202513641418 x[3,2]
   + 0.2541053557112933 x[3,3] + 0.0344461972122372 x[3,4]
   + 0.1306214280172748 x[3,5] + 0.2573637797719103 x[3,6]
   + 0.0228606894411544 x[3,7] >= 0
 findWorstP[3,4]: z + 0.103442033670382 cashProportion[3]
   - 0.103442033670382 cashProportion[4] + 0.0470402648116062 x[3,1]
   + 0.1501202513641418 x[3,2] + 0.2541053557112933 x[3,3]
   + 0.0344461972122372 x[3,4] + 0.1306214280172748 x[3,5]
   + 0.2573637797719103 x[3,6] + 0.0228606894411544 x[3,7]
   - 0.0470402648116062 x[4,1] - 0.1501202513641418 x[4,2]
   - 0.2541053557112933 x[4,3] - 0.0344461972122372 x[4,4]
   - 0.1306214280172748 x[4,5] - 0.2573637797719103 x[4,6]
   - 0.0228606894411544 x[4,7] >= 0
 findWorstP[3,5]: z + 0.103442033670382 cashProportion[3]
   - 0.103442033670382 cashProportion[5] + 0.0470402648116062 x[3,1]
   + 0.1501202513641418 x[3,2] + 0.2541053557112933 x[3,3]
   + 0.0344461972122372 x[3,4] + 0.1306214280172748 x[3,5]
   + 0.2573637797719103 x[3,6] + 0.0228606894411544 x[3,7]
   - 0.0470402648116062 x[5,1] - 0.1501202513641418 x[5,2]
   - 0.2541053557112933 x[5,3] - 0.0344461972122372 x[5,4]
   - 0.1306214280172748 x[5,5] - 0.2573637797719103 x[5,6]
   - 0.0228606894411544 x[5,7] >= 0
 findWorstP[4,1]: z - 0.0767135898124353 cashProportion[1]
   + 0.0767135898124353 cashProportion[4] - 0.1917839745310882 x[1,1]
   - 0.1622300640558475 x[1,2] - 0.1620958152736757 x[1,3]
   - 0.0296498024625062 x[1,4] - 0.1715315868206053 x[1,5]
   - 0.099574239576541 x[1,6] - 0.1064209274673008 x[1,7]
   + 0.1917839745310882 x[4,1] + 0.1622300640558475 x[4,2]
   + 0.1620958152736757 x[4,3] + 0.0296498024625062 x[4,4]
   + 0.1715315868206053 x[4,5] + 0.099574239576541 x[4,6]
   + 0.1064209274673008 x[4,7] >= 0
 findWorstP[4,2]: z - 0.0767135898124353 cashProportion[2]
   + 0.0767135898124353 cashProportion[4] - 0.1917839745310882 x[2,1]
   - 0.1622300640558475 x[2,2] - 0.1620958152736757 x[2,3]
   - 0.0296498024625062 x[2,4] - 0.1715315868206053 x[2,5]
   - 0.099574239576541 x[2,6] - 0.1064209274673008 x[2,7]
   + 0.1917839745310882 x[4,1] + 0.1622300640558475 x[4,2]
   + 0.1620958152736757 x[4,3] + 0.0296498024625062 x[4,4]
   + 0.1715315868206053 x[4,5] + 0.099574239576541 x[4,6]
   + 0.1064209274673008 x[4,7] >= 0
 findWorstP[4,3]: z - 0.0767135898124353 cashProportion[3]
   + 0.0767135898124353 cashProportion[4] - 0.1917839745310882 x[3,1]
   - 0.1622300640558475 x[3,2] - 0.1620958152736757 x[3,3]
   - 0.0296498024625062 x[3,4] - 0.1715315868206053 x[3,5]
   - 0.099574239576541 x[3,6] - 0.1064209274673008 x[3,7]
   + 0.1917839745310882 x[4,1] + 0.1622300640558475 x[4,2]
   + 0.1620958152736757 x[4,3] + 0.0296498024625062 x[4,4]
   + 0.1715315868206053 x[4,5] + 0.099574239576541 x[4,6]
   + 0.1064209274673008 x[4,7] >= 0
 findWorstP[4,5]: z + 0.0767135898124353 cashProportion[4]
   - 0.0767135898124353 cashProportion[5] + 0.1917839745310882 x[4,1]
   + 0.1622300640558475 x[4,2] + 0.1620958152736757 x[4,3]
   + 0.0296498024625062 x[4,4] + 0.1715315868206053 x[4,5]
   + 0.099574239576541 x[4,6] + 0.1064209274673008 x[4,7]
   - 0.1917839745310882 x[5,1] - 0.1622300640558475 x[5,2]
   - 0.1620958152736757 x[5,3] - 0.0296498024625062 x[5,4]
   - 0.1715315868206053 x[5,5] - 0.099574239576541 x[5,6]
   - 0.1064209274673008 x[5,7] >= 0
 findWorstP[5,1]: z - 0.1115884617530548 cashProportion[1]
   + 0.1115884617530548 cashProportion[5] - 0.1363611002622329 x[1,1]
   - 0.00273391731294984 x[1,2] - 0.0507169558667634 x[1,3]
   - 0.2609217206940803 x[1,4] - 0.1468225185515818 x[1,5]
   - 0.1335434916029683 x[1,6] - 0.1573118339563689 x[1,7]
   + 0.1363611002622329 x[5,1] + 0.00273391731294984 x[5,2]
   + 0.0507169558667634 x[5,3] + 0.2609217206940803 x[5,4]
   + 0.1468225185515818 x[5,5] + 0.1335434916029683 x[5,6]
   + 0.1573118339563689 x[5,7] >= 0
 findWorstP[5,2]: z - 0.1115884617530548 cashProportion[2]
   + 0.1115884617530548 cashProportion[5] - 0.1363611002622329 x[2,1]
   - 0.00273391731294984 x[2,2] - 0.0507169558667634 x[2,3]
   - 0.2609217206940803 x[2,4] - 0.1468225185515818 x[2,5]
   - 0.1335434916029683 x[2,6] - 0.1573118339563689 x[2,7]
   + 0.1363611002622329 x[5,1] + 0.00273391731294984 x[5,2]
   + 0.0507169558667634 x[5,3] + 0.2609217206940803 x[5,4]
   + 0.1468225185515818 x[5,5] + 0.1335434916029683 x[5,6]
   + 0.1573118339563689 x[5,7] >= 0
 findWorstP[5,3]: z - 0.1115884617530548 cashProportion[3]
   + 0.1115884617530548 cashProportion[5] - 0.1363611002622329 x[3,1]
   - 0.00273391731294984 x[3,2] - 0.0507169558667634 x[3,3]
   - 0.2609217206940803 x[3,4] - 0.1468225185515818 x[3,5]
   - 0.1335434916029683 x[3,6] - 0.1573118339563689 x[3,7]
   + 0.1363611002622329 x[5,1] + 0.00273391731294984 x[5,2]
   + 0.0507169558667634 x[5,3] + 0.2609217206940803 x[5,4]
   + 0.1468225185515818 x[5,5] + 0.1335434916029683 x[5,6]
   + 0.1573118339563689 x[5,7] >= 0
 findWorstP[5,4]: z - 0.1115884617530548 cashProportion[4]
   + 0.1115884617530548 cashProportion[5] - 0.1363611002622329 x[4,1]
   - 0.00273391731294984 x[4,2] - 0.0507169558667634 x[4,3]
   - 0.2609217206940803 x[4,4] - 0.1468225185515818 x[4,5]
   - 0.1335434916029683 x[4,6] - 0.1573118339563689 x[4,7]
   + 0.1363611002622329 x[5,1] + 0.00273391731294984 x[5,2]
   + 0.0507169558667634 x[5,3] + 0.2609217206940803 x[5,4]
   + 0.1468225185515818 x[5,5] + 0.1335434916029683 x[5,6]
   + 0.1573118339563689 x[5,7] >= 0
Bounds
 z <= 1
 -infinity <= cashProportion[1] <= 1
 -infinity <= cashProportion[2] <= 1
 -infinity <= cashProportion[3] <= 1
 -infinity <= cashProportion[4] <= 1
 -infinity <= cashProportion[5] <= 1
Binaries
 x[1,1] x[1,2] x[1,3] x[1,4] x[1,5] x[1,6] x[1,7] x[2,1] x[2,2] x[2,3]
 x[2,4] x[2,5] x[2,6] x[2,7] x[3,1] x[3,2] x[3,3] x[3,4] x[3,5] x[3,6]
 x[3,7] x[4,1] x[4,2] x[4,3] x[4,4] x[4,5] x[4,6] x[4,7] x[5,1] x[5,2]
 x[5,3] x[5,4] x[5,5] x[5,6] x[5,7]
End
