data/mps_files/q3/87_6.mps
NAME foo
ROWS
 N  OBJ
 E  allocateEach[1]
 E  allocateEach[2]
 E  allocateEach[3]
 E  allocateEach[4]
 E  allocateEach[5]
 E  allocateEach[6]
 E  allocateEach[7]
 E  allocateAllCash
 G  findWorstP[1,2]
 G  findWorstP[1,3]
 G  findWorstP[1,4]
 G  findWorstP[1,5]
 G  findWorstP[2,1]
 G  findWorstP[2,3]
 G  findWorstP[2,4]
 G  findWorstP[2,5]
 G  findWorstP[3,1]
 G  findWorstP[3,2]
 G  findWorstP[3,4]
 G  findWorstP[3,5]
 G  findWorstP[4,1]
 G  findWorstP[4,2]
 G  findWorstP[4,3]
 G  findWorstP[4,5]
 G  findWorstP[5,1]
 G  findWorstP[5,2]
 G  findWorstP[5,3]
 G  findWorstP[5,4]
COLUMNS
    z         OBJ       1
    z         findWorstP[1,2]  1
    z         findWorstP[1,3]  1
    z         findWorstP[1,4]  1
    z         findWorstP[1,5]  1
    z         findWorstP[2,1]  1
    z         findWorstP[2,3]  1
    z         findWorstP[2,4]  1
    z         findWorstP[2,5]  1
    z         findWorstP[3,1]  1
    z         findWorstP[3,2]  1
    z         findWorstP[3,4]  1
    z         findWorstP[3,5]  1
    z         findWorstP[4,1]  1
    z         findWorstP[4,2]  1
    z         findWorstP[4,3]  1
    z         findWorstP[4,5]  1
    z         findWorstP[5,1]  1
    z         findWorstP[5,2]  1
    z         findWorstP[5,3]  1
    z         findWorstP[5,4]  1
    cashProportion[1]  allocateAllCash  1
    cashProportion[1]  findWorstP[1,2]  1.1464274454730446e-01
    cashProportion[1]  findWorstP[1,3]  1.1464274454730446e-01
    cashProportion[1]  findWorstP[1,4]  1.1464274454730446e-01
    cashProportion[1]  findWorstP[1,5]  1.1464274454730446e-01
    cashProportion[1]  findWorstP[2,1]  -0.0907894139543329
    cashProportion[1]  findWorstP[3,1]  -1.0344203367038196e-01
    cashProportion[1]  findWorstP[4,1]  -7.6713589812435284e-02
    cashProportion[1]  findWorstP[5,1]  -1.1158846175305476e-01
    cashProportion[2]  allocateAllCash  1
    cashProportion[2]  findWorstP[1,2]  -1.1464274454730446e-01
    cashProportion[2]  findWorstP[2,1]  0.0907894139543329
    cashProportion[2]  findWorstP[2,3]  0.0907894139543329
    cashProportion[2]  findWorstP[2,4]  0.0907894139543329
    cashProportion[2]  findWorstP[2,5]  0.0907894139543329
    cashProportion[2]  findWorstP[3,2]  -1.0344203367038196e-01
    cashProportion[2]  findWorstP[4,2]  -7.6713589812435284e-02
    cashProportion[2]  findWorstP[5,2]  -1.1158846175305476e-01
    cashProportion[3]  allocateAllCash  1
    cashProportion[3]  findWorstP[1,3]  -1.1464274454730446e-01
    cashProportion[3]  findWorstP[2,3]  -0.0907894139543329
    cashProportion[3]  findWorstP[3,1]  1.0344203367038196e-01
    cashProportion[3]  findWorstP[3,2]  1.0344203367038196e-01
    cashProportion[3]  findWorstP[3,4]  1.0344203367038196e-01
    cashProportion[3]  findWorstP[3,5]  1.0344203367038196e-01
    cashProportion[3]  findWorstP[4,3]  -7.6713589812435284e-02
    cashProportion[3]  findWorstP[5,3]  -1.1158846175305476e-01
    cashProportion[4]  allocateAllCash  1
    cashProportion[4]  findWorstP[1,4]  -1.1464274454730446e-01
    cashProportion[4]  findWorstP[2,4]  -0.0907894139543329
    cashProportion[4]  findWorstP[3,4]  -1.0344203367038196e-01
    cashProportion[4]  findWorstP[4,1]  7.6713589812435284e-02
    cashProportion[4]  findWorstP[4,2]  7.6713589812435284e-02
    cashProportion[4]  findWorstP[4,3]  7.6713589812435284e-02
    cashProportion[4]  findWorstP[4,5]  7.6713589812435284e-02
    cashProportion[4]  findWorstP[5,4]  -1.1158846175305476e-01
    cashProportion[5]  allocateAllCash  1
    cashProportion[5]  findWorstP[1,5]  -1.1464274454730446e-01
    cashProportion[5]  findWorstP[2,5]  -0.0907894139543329
    cashProportion[5]  findWorstP[3,5]  -1.0344203367038196e-01
    cashProportion[5]  findWorstP[4,5]  -7.6713589812435284e-02
    cashProportion[5]  findWorstP[5,1]  1.1158846175305476e-01
    cashProportion[5]  findWorstP[5,2]  1.1158846175305476e-01
    cashProportion[5]  findWorstP[5,3]  1.1158846175305476e-01
    cashProportion[5]  findWorstP[5,4]  1.1158846175305476e-01
    MARKER    'MARKER'                 'INTORG'
    x[1,1]    allocateEach[1]  1
    x[1,1]    findWorstP[1,2]  2.0228712275371871e-01
    x[1,1]    findWorstP[1,3]  2.0228712275371871e-01
    x[1,1]    findWorstP[1,4]  2.0228712275371871e-01
    x[1,1]    findWorstP[1,5]  2.0228712275371871e-01
    x[1,1]    findWorstP[2,1]  -1.8282718235053788e-01
    x[1,1]    findWorstP[3,1]  -0.0470402648116062
    x[1,1]    findWorstP[4,1]  -1.9178397453108820e-01
    x[1,1]    findWorstP[5,1]  -1.3636110026223291e-01
    x[1,2]    allocateEach[2]  1
    x[1,2]    findWorstP[1,2]  2.8073142071021179e-01
    x[1,2]    findWorstP[1,3]  2.8073142071021179e-01
    x[1,2]    findWorstP[1,4]  2.8073142071021179e-01
    x[1,2]    findWorstP[1,5]  2.8073142071021179e-01
    x[1,2]    findWorstP[2,1]  -2.0477552317399786e-01
    x[1,2]    findWorstP[3,1]  -1.5012025136414184e-01
    x[1,2]    findWorstP[4,1]  -1.6223006405584750e-01
    x[1,2]    findWorstP[5,1]  -2.7339173129498412e-03
    x[1,3]    allocateEach[3]  1
    x[1,3]    findWorstP[1,2]  7.5664211401220939e-03
    x[1,3]    findWorstP[1,3]  7.5664211401220939e-03
    x[1,3]    findWorstP[1,4]  7.5664211401220939e-03
    x[1,3]    findWorstP[1,5]  7.5664211401220939e-03
    x[1,3]    findWorstP[2,1]  -1.5434200372236594e-02
    x[1,3]    findWorstP[3,1]  -2.5410535571129328e-01
    x[1,3]    findWorstP[4,1]  -1.6209581527367573e-01
    x[1,3]    findWorstP[5,1]  -5.0716955866763377e-02
    x[1,4]    allocateEach[4]  1
    x[1,4]    findWorstP[1,2]  6.1477171763492010e-02
    x[1,4]    findWorstP[1,3]  6.1477171763492010e-02
    x[1,4]    findWorstP[1,4]  6.1477171763492010e-02
    x[1,4]    findWorstP[1,5]  6.1477171763492010e-02
    x[1,4]    findWorstP[2,1]  -1.9127059784829084e-01
    x[1,4]    findWorstP[3,1]  -0.0344461972122372
    x[1,4]    findWorstP[4,1]  -2.9649802462506234e-02
    x[1,4]    findWorstP[5,1]  -2.6092172069408026e-01
    x[1,5]    allocateEach[5]  1
    x[1,5]    findWorstP[1,2]  9.8105528646355786e-02
    x[1,5]    findWorstP[1,3]  9.8105528646355786e-02
    x[1,5]    findWorstP[1,4]  9.8105528646355786e-02
    x[1,5]    findWorstP[1,5]  9.8105528646355786e-02
    x[1,5]    findWorstP[2,1]  -1.2233873530346359e-01
    x[1,5]    findWorstP[3,1]  -1.3062142801727483e-01
    x[1,5]    findWorstP[4,1]  -1.7153158682060529e-01
    x[1,5]    findWorstP[5,1]  -1.4682251855158179e-01
    x[1,6]    allocateEach[6]  1
    x[1,6]    findWorstP[1,2]  6.2365653033733620e-02
    x[1,6]    findWorstP[1,3]  6.2365653033733620e-02
    x[1,6]    findWorstP[1,4]  6.2365653033733620e-02
    x[1,6]    findWorstP[1,5]  6.2365653033733620e-02
    x[1,6]    findWorstP[2,1]  -1.6550910163874885e-01
    x[1,6]    findWorstP[3,1]  -2.5736377977191033e-01
    x[1,6]    findWorstP[4,1]  -9.9574239576540990e-02
    x[1,6]    findWorstP[5,1]  -1.3354349160296827e-01
    x[1,7]    allocateEach[7]  1
    x[1,7]    findWorstP[1,2]  1.7282393740506147e-01
    x[1,7]    findWorstP[1,3]  1.7282393740506147e-01
    x[1,7]    findWorstP[1,4]  1.7282393740506147e-01
    x[1,7]    findWorstP[1,5]  1.7282393740506147e-01
    x[1,7]    findWorstP[2,1]  -2.7055245358391204e-02
    x[1,7]    findWorstP[3,1]  -2.2860689441154415e-02
    x[1,7]    findWorstP[4,1]  -1.0642092746730084e-01
    x[1,7]    findWorstP[5,1]  -1.5731183395636891e-01
    x[2,1]    allocateEach[1]  1
    x[2,1]    findWorstP[1,2]  -2.0228712275371871e-01
    x[2,1]    findWorstP[2,1]  1.8282718235053788e-01
    x[2,1]    findWorstP[2,3]  1.8282718235053788e-01
    x[2,1]    findWorstP[2,4]  1.8282718235053788e-01
    x[2,1]    findWorstP[2,5]  1.8282718235053788e-01
    x[2,1]    findWorstP[3,2]  -0.0470402648116062
    x[2,1]    findWorstP[4,2]  -1.9178397453108820e-01
    x[2,1]    findWorstP[5,2]  -1.3636110026223291e-01
    x[2,2]    allocateEach[2]  1
    x[2,2]    findWorstP[1,2]  -2.8073142071021179e-01
    x[2,2]    findWorstP[2,1]  2.0477552317399786e-01
    x[2,2]    findWorstP[2,3]  2.0477552317399786e-01
    x[2,2]    findWorstP[2,4]  2.0477552317399786e-01
    x[2,2]    findWorstP[2,5]  2.0477552317399786e-01
    x[2,2]    findWorstP[3,2]  -1.5012025136414184e-01
    x[2,2]    findWorstP[4,2]  -1.6223006405584750e-01
    x[2,2]    findWorstP[5,2]  -2.7339173129498412e-03
    x[2,3]    allocateEach[3]  1
    x[2,3]    findWorstP[1,2]  -7.5664211401220939e-03
    x[2,3]    findWorstP[2,1]  1.5434200372236594e-02
    x[2,3]    findWorstP[2,3]  1.5434200372236594e-02
    x[2,3]    findWorstP[2,4]  1.5434200372236594e-02
    x[2,3]    findWorstP[2,5]  1.5434200372236594e-02
    x[2,3]    findWorstP[3,2]  -2.5410535571129328e-01
    x[2,3]    findWorstP[4,2]  -1.6209581527367573e-01
    x[2,3]    findWorstP[5,2]  -5.0716955866763377e-02
    x[2,4]    allocateEach[4]  1
    x[2,4]    findWorstP[1,2]  -6.1477171763492010e-02
    x[2,4]    findWorstP[2,1]  1.9127059784829084e-01
    x[2,4]    findWorstP[2,3]  1.9127059784829084e-01
    x[2,4]    findWorstP[2,4]  1.9127059784829084e-01
    x[2,4]    findWorstP[2,5]  1.9127059784829084e-01
    x[2,4]    findWorstP[3,2]  -0.0344461972122372
    x[2,4]    findWorstP[4,2]  -2.9649802462506234e-02
    x[2,4]    findWorstP[5,2]  -2.6092172069408026e-01
    x[2,5]    allocateEach[5]  1
    x[2,5]    findWorstP[1,2]  -9.8105528646355786e-02
    x[2,5]    findWorstP[2,1]  1.2233873530346359e-01
    x[2,5]    findWorstP[2,3]  1.2233873530346359e-01
    x[2,5]    findWorstP[2,4]  1.2233873530346359e-01
    x[2,5]    findWorstP[2,5]  1.2233873530346359e-01
    x[2,5]    findWorstP[3,2]  -1.3062142801727483e-01
    x[2,5]    findWorstP[4,2]  -1.7153158682060529e-01
    x[2,5]    findWorstP[5,2]  -1.4682251855158179e-01
    x[2,6]    allocateEach[6]  1
    x[2,6]    findWorstP[1,2]  -6.2365653033733620e-02
    x[2,6]    findWorstP[2,1]  1.6550910163874885e-01
    x[2,6]    findWorstP[2,3]  1.6550910163874885e-01
    x[2,6]    findWorstP[2,4]  1.6550910163874885e-01
    x[2,6]    findWorstP[2,5]  1.6550910163874885e-01
    x[2,6]    findWorstP[3,2]  -2.5736377977191033e-01
    x[2,6]    findWorstP[4,2]  -9.9574239576540990e-02
    x[2,6]    findWorstP[5,2]  -1.3354349160296827e-01
    x[2,7]    allocateEach[7]  1
    x[2,7]    findWorstP[1,2]  -1.7282393740506147e-01
    x[2,7]    findWorstP[2,1]  2.7055245358391204e-02
    x[2,7]    findWorstP[2,3]  2.7055245358391204e-02
    x[2,7]    findWorstP[2,4]  2.7055245358391204e-02
    x[2,7]    findWorstP[2,5]  2.7055245358391204e-02
    x[2,7]    findWorstP[3,2]  -2.2860689441154415e-02
    x[2,7]    findWorstP[4,2]  -1.0642092746730084e-01
    x[2,7]    findWorstP[5,2]  -1.5731183395636891e-01
    x[3,1]    allocateEach[1]  1
    x[3,1]    findWorstP[1,3]  -2.0228712275371871e-01
    x[3,1]    findWorstP[2,3]  -1.8282718235053788e-01
    x[3,1]    findWorstP[3,1]  0.0470402648116062
    x[3,1]    findWorstP[3,2]  0.0470402648116062
    x[3,1]    findWorstP[3,4]  0.0470402648116062
    x[3,1]    findWorstP[3,5]  0.0470402648116062
    x[3,1]    findWorstP[4,3]  -1.9178397453108820e-01
    x[3,1]    findWorstP[5,3]  -1.3636110026223291e-01
    x[3,2]    allocateEach[2]  1
    x[3,2]    findWorstP[1,3]  -2.8073142071021179e-01
    x[3,2]    findWorstP[2,3]  -2.0477552317399786e-01
    x[3,2]    findWorstP[3,1]  1.5012025136414184e-01
    x[3,2]    findWorstP[3,2]  1.5012025136414184e-01
    x[3,2]    findWorstP[3,4]  1.5012025136414184e-01
    x[3,2]    findWorstP[3,5]  1.5012025136414184e-01
    x[3,2]    findWorstP[4,3]  -1.6223006405584750e-01
    x[3,2]    findWorstP[5,3]  -2.7339173129498412e-03
    x[3,3]    allocateEach[3]  1
    x[3,3]    findWorstP[1,3]  -7.5664211401220939e-03
    x[3,3]    findWorstP[2,3]  -1.5434200372236594e-02
    x[3,3]    findWorstP[3,1]  2.5410535571129328e-01
    x[3,3]    findWorstP[3,2]  2.5410535571129328e-01
    x[3,3]    findWorstP[3,4]  2.5410535571129328e-01
    x[3,3]    findWorstP[3,5]  2.5410535571129328e-01
    x[3,3]    findWorstP[4,3]  -1.6209581527367573e-01
    x[3,3]    findWorstP[5,3]  -5.0716955866763377e-02
    x[3,4]    allocateEach[4]  1
    x[3,4]    findWorstP[1,3]  -6.1477171763492010e-02
    x[3,4]    findWorstP[2,3]  -1.9127059784829084e-01
    x[3,4]    findWorstP[3,1]  0.0344461972122372
    x[3,4]    findWorstP[3,2]  0.0344461972122372
    x[3,4]    findWorstP[3,4]  0.0344461972122372
    x[3,4]    findWorstP[3,5]  0.0344461972122372
    x[3,4]    findWorstP[4,3]  -2.9649802462506234e-02
    x[3,4]    findWorstP[5,3]  -2.6092172069408026e-01
    x[3,5]    allocateEach[5]  1
    x[3,5]    findWorstP[1,3]  -9.8105528646355786e-02
    x[3,5]    findWorstP[2,3]  -1.2233873530346359e-01
    x[3,5]    findWorstP[3,1]  1.3062142801727483e-01
    x[3,5]    findWorstP[3,2]  1.3062142801727483e-01
    x[3,5]    findWorstP[3,4]  1.3062142801727483e-01
    x[3,5]    findWorstP[3,5]  1.3062142801727483e-01
    x[3,5]    findWorstP[4,3]  -1.7153158682060529e-01
    x[3,5]    findWorstP[5,3]  -1.4682251855158179e-01
    x[3,6]    allocateEach[6]  1
    x[3,6]    findWorstP[1,3]  -6.2365653033733620e-02
    x[3,6]    findWorstP[2,3]  -1.6550910163874885e-01
    x[3,6]    findWorstP[3,1]  2.5736377977191033e-01
    x[3,6]    findWorstP[3,2]  2.5736377977191033e-01
    x[3,6]    findWorstP[3,4]  2.5736377977191033e-01
    x[3,6]    findWorstP[3,5]  2.5736377977191033e-01
    x[3,6]    findWorstP[4,3]  -9.9574239576540990e-02
    x[3,6]    findWorstP[5,3]  -1.3354349160296827e-01
    x[3,7]    allocateEach[7]  1
    x[3,7]    findWorstP[1,3]  -1.7282393740506147e-01
    x[3,7]    findWorstP[2,3]  -2.7055245358391204e-02
    x[3,7]    findWorstP[3,1]  2.2860689441154415e-02
    x[3,7]    findWorstP[3,2]  2.2860689441154415e-02
    x[3,7]    findWorstP[3,4]  2.2860689441154415e-02
    x[3,7]    findWorstP[3,5]  2.2860689441154415e-02
    x[3,7]    findWorstP[4,3]  -1.0642092746730084e-01
    x[3,7]    findWorstP[5,3]  -1.5731183395636891e-01
    x[4,1]    allocateEach[1]  1
    x[4,1]    findWorstP[1,4]  -2.0228712275371871e-01
    x[4,1]    findWorstP[2,4]  -1.8282718235053788e-01
    x[4,1]    findWorstP[3,4]  -0.0470402648116062
    x[4,1]    findWorstP[4,1]  1.9178397453108820e-01
    x[4,1]    findWorstP[4,2]  1.9178397453108820e-01
    x[4,1]    findWorstP[4,3]  1.9178397453108820e-01
    x[4,1]    findWorstP[4,5]  1.9178397453108820e-01
    x[4,1]    findWorstP[5,4]  -1.3636110026223291e-01
    x[4,2]    allocateEach[2]  1
    x[4,2]    findWorstP[1,4]  -2.8073142071021179e-01
    x[4,2]    findWorstP[2,4]  -2.0477552317399786e-01
    x[4,2]    findWorstP[3,4]  -1.5012025136414184e-01
    x[4,2]    findWorstP[4,1]  1.6223006405584750e-01
    x[4,2]    findWorstP[4,2]  1.6223006405584750e-01
    x[4,2]    findWorstP[4,3]  1.6223006405584750e-01
    x[4,2]    findWorstP[4,5]  1.6223006405584750e-01
    x[4,2]    findWorstP[5,4]  -2.7339173129498412e-03
    x[4,3]    allocateEach[3]  1
    x[4,3]    findWorstP[1,4]  -7.5664211401220939e-03
    x[4,3]    findWorstP[2,4]  -1.5434200372236594e-02
    x[4,3]    findWorstP[3,4]  -2.5410535571129328e-01
    x[4,3]    findWorstP[4,1]  1.6209581527367573e-01
    x[4,3]    findWorstP[4,2]  1.6209581527367573e-01
    x[4,3]    findWorstP[4,3]  1.6209581527367573e-01
    x[4,3]    findWorstP[4,5]  1.6209581527367573e-01
    x[4,3]    findWorstP[5,4]  -5.0716955866763377e-02
    x[4,4]    allocateEach[4]  1
    x[4,4]    findWorstP[1,4]  -6.1477171763492010e-02
    x[4,4]    findWorstP[2,4]  -1.9127059784829084e-01
    x[4,4]    findWorstP[3,4]  -0.0344461972122372
    x[4,4]    findWorstP[4,1]  2.9649802462506234e-02
    x[4,4]    findWorstP[4,2]  2.9649802462506234e-02
    x[4,4]    findWorstP[4,3]  2.9649802462506234e-02
    x[4,4]    findWorstP[4,5]  2.9649802462506234e-02
    x[4,4]    findWorstP[5,4]  -2.6092172069408026e-01
    x[4,5]    allocateEach[5]  1
    x[4,5]    findWorstP[1,4]  -9.8105528646355786e-02
    x[4,5]    findWorstP[2,4]  -1.2233873530346359e-01
    x[4,5]    findWorstP[3,4]  -1.3062142801727483e-01
    x[4,5]    findWorstP[4,1]  1.7153158682060529e-01
    x[4,5]    findWorstP[4,2]  1.7153158682060529e-01
    x[4,5]    findWorstP[4,3]  1.7153158682060529e-01
    x[4,5]    findWorstP[4,5]  1.7153158682060529e-01
    x[4,5]    findWorstP[5,4]  -1.4682251855158179e-01
    x[4,6]    allocateEach[6]  1
    x[4,6]    findWorstP[1,4]  -6.2365653033733620e-02
    x[4,6]    findWorstP[2,4]  -1.6550910163874885e-01
    x[4,6]    findWorstP[3,4]  -2.5736377977191033e-01
    x[4,6]    findWorstP[4,1]  9.9574239576540990e-02
    x[4,6]    findWorstP[4,2]  9.9574239576540990e-02
    x[4,6]    findWorstP[4,3]  9.9574239576540990e-02
    x[4,6]    findWorstP[4,5]  9.9574239576540990e-02
    x[4,6]    findWorstP[5,4]  -1.3354349160296827e-01
    x[4,7]    allocateEach[7]  1
    x[4,7]    findWorstP[1,4]  -1.7282393740506147e-01
    x[4,7]    findWorstP[2,4]  -2.7055245358391204e-02
    x[4,7]    findWorstP[3,4]  -2.2860689441154415e-02
    x[4,7]    findWorstP[4,1]  1.0642092746730084e-01
    x[4,7]    findWorstP[4,2]  1.0642092746730084e-01
    x[4,7]    findWorstP[4,3]  1.0642092746730084e-01
    x[4,7]    findWorstP[4,5]  1.0642092746730084e-01
    x[4,7]    findWorstP[5,4]  -1.5731183395636891e-01
    x[5,1]    allocateEach[1]  1
    x[5,1]    findWorstP[1,5]  -2.0228712275371871e-01
    x[5,1]    findWorstP[2,5]  -1.8282718235053788e-01
    x[5,1]    findWorstP[3,5]  -0.0470402648116062
    x[5,1]    findWorstP[4,5]  -1.9178397453108820e-01
    x[5,1]    findWorstP[5,1]  1.3636110026223291e-01
    x[5,1]    findWorstP[5,2]  1.3636110026223291e-01
    x[5,1]    findWorstP[5,3]  1.3636110026223291e-01
    x[5,1]    findWorstP[5,4]  1.3636110026223291e-01
    x[5,2]    allocateEach[2]  1
    x[5,2]    findWorstP[1,5]  -2.8073142071021179e-01
    x[5,2]    findWorstP[2,5]  -2.0477552317399786e-01
    x[5,2]    findWorstP[3,5]  -1.5012025136414184e-01
    x[5,2]    findWorstP[4,5]  -1.6223006405584750e-01
    x[5,2]    findWorstP[5,1]  2.7339173129498412e-03
    x[5,2]    findWorstP[5,2]  2.7339173129498412e-03
    x[5,2]    findWorstP[5,3]  2.7339173129498412e-03
    x[5,2]    findWorstP[5,4]  2.7339173129498412e-03
    x[5,3]    allocateEach[3]  1
    x[5,3]    findWorstP[1,5]  -7.5664211401220939e-03
    x[5,3]    findWorstP[2,5]  -1.5434200372236594e-02
    x[5,3]    findWorstP[3,5]  -2.5410535571129328e-01
    x[5,3]    findWorstP[4,5]  -1.6209581527367573e-01
    x[5,3]    findWorstP[5,1]  5.0716955866763377e-02
    x[5,3]    findWorstP[5,2]  5.0716955866763377e-02
    x[5,3]    findWorstP[5,3]  5.0716955866763377e-02
    x[5,3]    findWorstP[5,4]  5.0716955866763377e-02
    x[5,4]    allocateEach[4]  1
    x[5,4]    findWorstP[1,5]  -6.1477171763492010e-02
    x[5,4]    findWorstP[2,5]  -1.9127059784829084e-01
    x[5,4]    findWorstP[3,5]  -0.0344461972122372
    x[5,4]    findWorstP[4,5]  -2.9649802462506234e-02
    x[5,4]    findWorstP[5,1]  2.6092172069408026e-01
    x[5,4]    findWorstP[5,2]  2.6092172069408026e-01
    x[5,4]    findWorstP[5,3]  2.6092172069408026e-01
    x[5,4]    findWorstP[5,4]  2.6092172069408026e-01
    x[5,5]    allocateEach[5]  1
    x[5,5]    findWorstP[1,5]  -9.8105528646355786e-02
    x[5,5]    findWorstP[2,5]  -1.2233873530346359e-01
    x[5,5]    findWorstP[3,5]  -1.3062142801727483e-01
    x[5,5]    findWorstP[4,5]  -1.7153158682060529e-01
    x[5,5]    findWorstP[5,1]  1.4682251855158179e-01
    x[5,5]    findWorstP[5,2]  1.4682251855158179e-01
    x[5,5]    findWorstP[5,3]  1.4682251855158179e-01
    x[5,5]    findWorstP[5,4]  1.4682251855158179e-01
    x[5,6]    allocateEach[6]  1
    x[5,6]    findWorstP[1,5]  -6.2365653033733620e-02
    x[5,6]    findWorstP[2,5]  -1.6550910163874885e-01
    x[5,6]    findWorstP[3,5]  -2.5736377977191033e-01
    x[5,6]    findWorstP[4,5]  -9.9574239576540990e-02
    x[5,6]    findWorstP[5,1]  1.3354349160296827e-01
    x[5,6]    findWorstP[5,2]  1.3354349160296827e-01
    x[5,6]    findWorstP[5,3]  1.3354349160296827e-01
    x[5,6]    findWorstP[5,4]  1.3354349160296827e-01
    x[5,7]    allocateEach[7]  1
    x[5,7]    findWorstP[1,5]  -1.7282393740506147e-01
    x[5,7]    findWorstP[2,5]  -2.7055245358391204e-02
    x[5,7]    findWorstP[3,5]  -2.2860689441154415e-02
    x[5,7]    findWorstP[4,5]  -1.0642092746730084e-01
    x[5,7]    findWorstP[5,1]  1.5731183395636891e-01
    x[5,7]    findWorstP[5,2]  1.5731183395636891e-01
    x[5,7]    findWorstP[5,3]  1.5731183395636891e-01
    x[5,7]    findWorstP[5,4]  1.5731183395636891e-01
    MARKER    'MARKER'                 'INTEND'
RHS
    RHS1      allocateEach[1]  1
    RHS1      allocateEach[2]  1
    RHS1      allocateEach[3]  1
    RHS1      allocateEach[4]  1
    RHS1      allocateEach[5]  1
    RHS1      allocateEach[6]  1
    RHS1      allocateEach[7]  1
    RHS1      allocateAllCash  1
BOUNDS
 UP BND1      z         1
 MI BND1      cashProportion[1]
 UP BND1      cashProportion[1]  1
 MI BND1      cashProportion[2]
 UP BND1      cashProportion[2]  1
 MI BND1      cashProportion[3]
 UP BND1      cashProportion[3]  1
 MI BND1      cashProportion[4]
 UP BND1      cashProportion[4]  1
 MI BND1      cashProportion[5]
 UP BND1      cashProportion[5]  1
 BV BND1      x[1,1]  
 BV BND1      x[1,2]  
 BV BND1      x[1,3]  
 BV BND1      x[1,4]  
 BV BND1      x[1,5]  
 BV BND1      x[1,6]  
 BV BND1      x[1,7]  
 BV BND1      x[2,1]  
 BV BND1      x[2,2]  
 BV BND1      x[2,3]  
 BV BND1      x[2,4]  
 BV BND1      x[2,5]  
 BV BND1      x[2,6]  
 BV BND1      x[2,7]  
 BV BND1      x[3,1]  
 BV BND1      x[3,2]  
 BV BND1      x[3,3]  
 BV BND1      x[3,4]  
 BV BND1      x[3,5]  
 BV BND1      x[3,6]  
 BV BND1      x[3,7]  
 BV BND1      x[4,1]  
 BV BND1      x[4,2]  
 BV BND1      x[4,3]  
 BV BND1      x[4,4]  
 BV BND1      x[4,5]  
 BV BND1      x[4,6]  
 BV BND1      x[4,7]  
 BV BND1      x[5,1]  
 BV BND1      x[5,2]  
 BV BND1      x[5,3]  
 BV BND1      x[5,4]  
 BV BND1      x[5,5]  
 BV BND1      x[5,6]  
 BV BND1      x[5,7]  
ENDATA
